data;

param num_top:=5;

#nodes and edges of the physical network
param n := 10;

set E := (1,2) (1,3) (1,7) (2,4) (2,7) (3,5) (4,8) (5,6) (5,7) (6,7) (6,9) (7,8) (7,9) (8,10) (9,10) ;

#nodes and edges of the virtual networks
set Nl[1] := 5 8 3 9 4 ;
set Nl[2] := 6 3 9 2 10 ;
set Nl[3] := 10 6 9 4 8 ;
set Nl[4] := 4 3 6 5 7 ;
set Nl[5] := 3 9 5 6 8 ;

set El[1] := (5,8) (3,8) (3,9) (4,9) (4,5) (4,8) (8,9) (3,5) (3,4) (5,9) ;
set El[2] := (3,6) (3,9) (2,9) (2,10) (6,10) (6,9) (3,10) (9,10) (2,6) (2,3) ;
set El[3] := (6,10) (6,9) (4,9) (4,8) (8,10) (6,8) (9,10) (4,10) (4,6) (8,9) ;
set El[4] := (3,4) (3,6) (5,6) (5,7) (4,7) (4,5) (3,7) (4,6) (3,5) (6,7) ;
set El[5] := (3,9) (5,9) (5,6) (6,8) (3,8) (5,8) (3,6) (8,9) (6,9) (3,5) ;
